GLPSOL--GLPK LP/MIP Solver 5.0
Parameter(s) specified in the command line:
 --lp ../modeles/3_179.lp --log 3_179.log
Reading problem data from '../modeles/3_179.lp'...
550 rows, 1080 columns, 3774 non-zeros
537 integer variables, all of which are binary
1639 lines were read
GLPK Integer Optimizer 5.0
550 rows, 1080 columns, 3774 non-zeros
537 integer variables, all of which are binary
Preprocessing...
534 constraint coefficient(s) were reduced
550 rows, 1077 columns, 3771 non-zeros
537 integer variables, all of which are binary
Scaling...
 A: min|aij| =  1.248e-04  max|aij| =  4.000e+00  ratio =  3.204e+04
GM: min|aij| =  7.474e-02  max|aij| =  1.338e+01  ratio =  1.790e+02
EQ: min|aij| =  5.587e-03  max|aij| =  1.000e+00  ratio =  1.790e+02
2N: min|aij| =  3.906e-03  max|aij| =  1.758e+00  ratio =  4.501e+02
Constructing initial basis...
Size of triangular part is 550
Solving LP relaxation...
GLPK Simplex Optimizer 5.0
550 rows, 1077 columns, 3771 non-zeros
      0: obj =   6.000000000e+00 inf =   1.450e+01 (7)
     38: obj =   4.998283396e-01 inf =   0.000e+00 (0)
*   149: obj =  -1.731763000e+00 inf =   2.693e-16 (0)
OPTIMAL LP SOLUTION FOUND
Integer optimization begins...
Long-step dual simplex will be used
+   149: mip =     not found yet >=              -inf        (1; 0)
+   256: >>>>>  -1.731759777e+00 >=  -1.731763000e+00 < 0.1% (103; 0)
+   357: >>>>>  -1.731763000e+00 >=  -1.731763000e+00   0.0% (2; 102)
+   357: mip =  -1.731763000e+00 >=     tree is empty   0.0% (0; 205)
INTEGER OPTIMAL SOLUTION FOUND
Time used:   0.1 secs
Memory used: 1.7 Mb (1730677 bytes)
